* ENCODING=ISO-8859-1
NAME          CPLEX
ROWS
 N  obj1    
 G  c1      
 G  c2      
 G  c3      
 G  c4      
 G  c5      
 G  c6      
 G  c7      
 G  c8      
 G  c9      
 G  c10     
 G  c11     
 G  c12     
 G  c13     
 G  c14     
 G  c15     
 G  c16     
 G  c17     
 G  c18     
 G  c19     
 G  c20     
 G  c21     
 G  c22     
 G  c23     
 G  c24     
 G  c25     
 G  c26     
 G  c27     
 G  c28     
 G  c29     
 G  c30     
 G  c31     
 G  c32     
 G  c33     
 G  c34     
 G  c35     
COLUMNS
    MARK0000  'MARKER'                 'INTORG'
    x1        obj1                            1
    x1        c1                            396
    x1        c6                            496
    x1        c7                            328
    x1        c12                           432
    x1        c13                           405
    x1        c28                           829
    x1        c35                           537
    x2        obj1                            1
    x2        c3                            582
    x2        c8                            478
    x2        c9                            369
    x2        c10                           829
    x2        c11                           690
    x3        obj1                            1
    x3        c32                           908
    x3        c33                           572
    x3        c34                           365
    x4        obj1                            1
    x4        c6                            140
    x4        c11                           314
    x4        c20                           427
    x4        c29                           429
    x4        c31                           511
    x4        c33                           130
    x5        obj1                            1
    x5        c28                           609
    x6        obj1                            1
    x6        c14                           340
    x6        c22                           688
    x6        c27                           626
    x6        c35                           407
    x7        obj1                            1
    x8        obj1                            1
    x8        c21                           290
    x8        c25                           474
    x8        c32                          1000
    x9        obj1                            1
    x9        c7                            894
    x9        c10                           259
    x9        c25                           132
    x10       obj1                            1
    x10       c12                           378
    x10       c21                           694
    x10       c22                           903
    x10       c31                           756
    x10       c32                           411
    x11       obj1                            1
    x11       c4                            259
    x11       c10                           540
    x11       c15                           893
    x11       c26                           923
    x12       obj1                            1
    x12       c35                           320
    x13       obj1                            1
    x13       c3                            617
    x13       c14                           729
    x14       obj1                            1
    x14       c2                            185
    x14       c8                            189
    x14       c17                           700
    x14       c21                           133
    x14       c22                           655
    x14       c26                           441
    x14       c27                           377
    x14       c32                           755
    x15       obj1                            1
    x15       c5                            910
    x15       c6                            433
    x15       c7                            220
    x15       c33                           943
    x16       obj1                            1
    x16       c14                           519
    x17       obj1                            1
    x17       c15                           557
    x17       c28                           129
    x18       obj1                            1
    x18       c14                           611
    x18       c20                           583
    x18       c22                           554
    x18       c24                           776
    x18       c29                           856
    x19       obj1                            1
    x19       c10                           195
    x19       c20                           513
    x19       c21                           913
    x19       c22                           177
    x19       c24                           286
    x19       c33                           558
    x19       c35                           399
    x20       obj1                            1
    x20       c11                           119
    x20       c18                           346
    x20       c19                           158
    x20       c20                           374
    x20       c21                           827
    x20       c30                           257
    x21       obj1                            1
    x21       c14                           274
    x21       c25                           204
    x21       c30                           381
    x21       c33                           164
    x22       obj1                            1
    x22       c4                            467
    x22       c18                           860
    x22       c21                           774
    x22       c22                           661
    x22       c23                           187
    x23       obj1                            1
    x23       c3                            857
    x23       c4                            118
    x24       obj1                            1
    x24       c5                            884
    x24       c11                           799
    x24       c24                           664
    x25       obj1                            1
    x25       c4                            218
    x25       c6                            289
    x25       c12                           437
    x25       c26                           309
    x26       obj1                            1
    x26       c5                            276
    x26       c12                           199
    x26       c16                           538
    x26       c18                           427
    x26       c33                           367
    x27       obj1                            1
    x27       c2                            527
    x27       c6                            995
    x27       c15                           910
    x27       c32                           696
    x28       obj1                            1
    x28       c7                            974
    x28       c8                            731
    x28       c10                           849
    x28       c16                           164
    x28       c30                           394
    x28       c35                           663
    x29       obj1                            1
    x29       c6                            854
    x29       c21                           500
    x29       c25                           811
    x30       obj1                            1
    x30       c1                            786
    x30       c3                            568
    x30       c13                           909
    x30       c15                           380
    x30       c20                           812
    x31       obj1                            1
    x31       c25                           591
    x31       c27                           941
    x32       obj1                            1
    x32       c7                            667
    x32       c18                           895
    x32       c19                           349
    x32       c22                           230
    x33       obj1                            1
    x33       c1                            399
    x33       c9                            913
    x33       c10                           734
    x33       c24                           374
    x33       c29                           789
    x34       obj1                            1
    x34       c1                            440
    x34       c18                          1000
    x35       obj1                            1
    x35       c4                            144
    x35       c13                           880
    x35       c25                           393
    x35       c33                           906
    x36       obj1                            1
    x36       c15                           786
    x36       c16                           244
    x36       c17                           849
    x36       c30                           322
    x36       c35                           445
    x37       obj1                            1
    x37       c2                            561
    x37       c13                           269
    x37       c29                           504
    x38       obj1                            1
    x38       c21                           927
    x38       c29                           721
    x39       obj1                            1
    x39       c14                           931
    x39       c26                           789
    x40       obj1                            1
    x40       c17                           598
    x40       c32                           124
    x41       obj1                            1
    x41       c4                            709
    x41       c7                            438
    x41       c16                           464
    x41       c17                           123
    x41       c23                           469
    x41       c29                           889
    x42       obj1                            1
    x42       c10                           157
    x42       c21                           246
    x43       obj1                            1
    x43       c32                           817
    x44       obj1                            1
    x44       c6                            715
    x44       c10                           214
    x44       c23                           444
    x44       c29                           977
    x44       c34                           866
    x45       obj1                            1
    x45       c7                            895
    x45       c20                           803
    x46       obj1                            1
    x46       c5                            244
    x46       c11                           420
    x46       c15                           129
    x46       c26                           710
    x46       c30                           559
    x47       obj1                            1
    x47       c5                            468
    x47       c6                            257
    x47       c7                            272
    x47       c8                            177
    x48       obj1                            1
    x48       c9                            323
    x48       c31                           513
    x48       c33                           945
    x49       obj1                            1
    x49       c10                           628
    x49       c11                           728
    x49       c13                           745
    x49       c18                           383
    x50       obj1                            1
    x50       c14                           866
    x50       c21                           687
    x51       obj1                            1
    x51       c6                            587
    x51       c14                           864
    x51       c20                           207
    x51       c27                           970
    x51       c29                           153
    x52       obj1                            1
    x53       obj1                            1
    x53       c3                            573
    x53       c13                           142
    x54       obj1                            1
    x54       c3                            520
    x54       c22                           176
    x54       c28                           456
    x55       obj1                            1
    x55       c30                           274
    x55       c33                           649
    x56       obj1                            1
    x56       c19                           218
    x57       obj1                            1
    x57       c1                            744
    x57       c4                            805
    x57       c11                           707
    x58       obj1                            1
    x58       c5                            430
    x59       obj1                            1
    x59       c1                            481
    x59       c13                           810
    x59       c17                           571
    x59       c18                           984
    x60       obj1                            1
    x60       c6                            476
    x60       c11                           518
    x61       obj1                            1
    x61       c2                            163
    x61       c7                            776
    x61       c9                            516
    x61       c13                           977
    x61       c20                           897
    x61       c35                           476
    x62       obj1                            1
    x62       c3                            103
    x62       c16                           152
    x62       c19                           684
    x62       c23                           389
    x62       c25                           936
    x63       obj1                            1
    x63       c7                            370
    x63       c24                           281
    x63       c31                           988
    x63       c34                           136
    x64       obj1                            1
    x64       c18                           269
    x64       c19                           565
    x64       c35                           558
    x65       obj1                            1
    x65       c4                            581
    x65       c8                            506
    x65       c12                           777
    x65       c17                           875
    x65       c23                           411
    x65       c32                           489
    x66       obj1                            1
    x66       c3                            946
    x66       c16                           727
    x66       c25                           295
    x66       c32                           882
    x67       obj1                            1
    x67       c3                            391
    x67       c11                           266
    x67       c13                           521
    x67       c15                           283
    x67       c19                           385
    x67       c33                           499
    x68       obj1                            1
    x68       c4                            361
    x68       c5                            703
    x69       obj1                            1
    x69       c10                           916
    x69       c19                           839
    x69       c34                           143
    x69       c35                           502
    x70       obj1                            1
    x70       c11                           793
    MARK0001  'MARKER'                 'INTEND'
RHS
    rhs       c1                           1623
    rhs       c2                            718
    rhs       c3                           2579
    rhs       c4                           1831
    rhs       c5                           1958
    rhs       c6                           2621
    rhs       c7                           2917
    rhs       c8                           1041
    rhs       c9                           1061
    rhs       c10                          2661
    rhs       c11                          2677
    rhs       c12                          1112
    rhs       c13                          2829
    rhs       c14                          2567
    rhs       c15                          1969
    rhs       c16                          1145
    rhs       c17                          1858
    rhs       c18                          2582
    rhs       c19                          1599
    rhs       c20                          2308
    rhs       c21                          2996
    rhs       c22                          2022
    rhs       c23                           950
    rhs       c24                          1191
    rhs       c25                          1918
    rhs       c26                          1586
    rhs       c27                          1457
    rhs       c28                          1012
    rhs       c29                          2659
    rhs       c30                          1094
    rhs       c31                          1384
    rhs       c32                          3041
    rhs       c33                          2867
    rhs       c34                           755
    rhs       c35                          2154
BOUNDS
 LI bnd       x1        0
 LI bnd       x2        0
 LI bnd       x3        0
 LI bnd       x4        0
 LI bnd       x5        0
 LI bnd       x6        0
 LI bnd       x7        0
 LI bnd       x8        0
 LI bnd       x9        0
 LI bnd       x10       0
 LI bnd       x11       0
 LI bnd       x12       0
 LI bnd       x13       0
 LI bnd       x14       0
 LI bnd       x15       0
 LI bnd       x16       0
 LI bnd       x17       0
 LI bnd       x18       0
 LI bnd       x19       0
 LI bnd       x20       0
 LI bnd       x21       0
 LI bnd       x22       0
 LI bnd       x23       0
 LI bnd       x24       0
 LI bnd       x25       0
 LI bnd       x26       0
 LI bnd       x27       0
 LI bnd       x28       0
 LI bnd       x29       0
 LI bnd       x30       0
 LI bnd       x31       0
 LI bnd       x32       0
 LI bnd       x33       0
 LI bnd       x34       0
 LI bnd       x35       0
 LI bnd       x36       0
 LI bnd       x37       0
 LI bnd       x38       0
 LI bnd       x39       0
 LI bnd       x40       0
 LI bnd       x41       0
 LI bnd       x42       0
 LI bnd       x43       0
 LI bnd       x44       0
 LI bnd       x45       0
 LI bnd       x46       0
 LI bnd       x47       0
 LI bnd       x48       0
 LI bnd       x49       0
 LI bnd       x50       0
 LI bnd       x51       0
 LI bnd       x52       0
 LI bnd       x53       0
 LI bnd       x54       0
 LI bnd       x55       0
 LI bnd       x56       0
 LI bnd       x57       0
 LI bnd       x58       0
 LI bnd       x59       0
 LI bnd       x60       0
 LI bnd       x61       0
 LI bnd       x62       0
 LI bnd       x63       0
 LI bnd       x64       0
 LI bnd       x65       0
 LI bnd       x66       0
 LI bnd       x67       0
 LI bnd       x68       0
 LI bnd       x69       0
 LI bnd       x70       0
ENDATA
